(set-info :Origin "This instance was generated by: BanditFuzz-- an RL fuzzer for SMT solvers" )
(set-info :Author "Joe Scott, Fed Mora, Vijay Ganesh" )
(set-info :Contact "Joe Scott, joseph.scott@uwaterloo.ca")
(set-logic QF_BV)
(declare-const bool_0 Bool)
(declare-const bool_1 Bool)
(declare-const bool_2 Bool)
(declare-const bool_3 Bool)
(declare-const bool_4 Bool)
(declare-const bv_0 (_ BitVec 32))
(declare-const bv_1 (_ BitVec 32))
(declare-const bv_2 (_ BitVec 32))
(declare-const bv_3 (_ BitVec 32))
(declare-const bv_4 (_ BitVec 32))
(assert (bvsle (bvadd (bvsrem #xe0f9cfe1  #x16f42952 ) (bvnand #xadeaaed9  #x0dec14c2 )) (bvashr (bvxor #x0f43ed10  #xe904beb2 ) (bvashr bv_4 bv_0))))
(assert (bvsge (bvsub (bvurem #x97ae19d6  bv_1) (bvnand bv_4 bv_1)) (bvnand (bvlshr bv_2 bv_3) (bvlshr bv_0 bv_3))))
(assert (bvsge (bvmul (bvor #x909b32db  #x54d23897 ) (bvashr #x5f0c3cdc  bv_0)) (bvor (bvnand #x02439a88  #xdf0dbfa0 ) (bvshl #x62aca308  bv_0))))
(assert (bvsle (bvashr (bvshl #x28bd8a48  #x6b88f82e ) (bvnor bv_4 #xfbed4bf3 )) (bvudiv (bvsub bv_3 #x75383e0c ) (bvurem bv_1 #x6ef7d556 ))))
(assert (bvsgt (bvurem (bvsdiv #x96b57807  #xfc56e035 ) (bvxor #x9865202c  bv_0)) (bvashr (bvlshr bv_3 bv_1) (bvashr bv_1 #x302d1064 ))))
(check-sat)
(exit)
